1 1 -2 0
1 1 -3 0
1 4 2 0
1 4 3 0
1 5 -6 0
1 -5 -3 0
1 7 -8 0
1 7 -2 0
1 7 6 0
1 7 -9 0
1 7 -10 0
1 -7 -3 0
1 2 -7 0
1 -2 4 0
1 2 -1 0
1 3 11 0
1 3 -4 0
1 3 12 0
1 3 13 0
1 3 -1 0
1 -8 14 0
1 -10 -7 0
1 -13 15 0
1 11 -16 0
1 -12 16 0
1 12 -17 0
1 18 19 0
1 9 18 0
1 9 5 0
1 15 -18 0
1 15 11 0
1 15 9 0
1 -15 12 0
1 -15 13 0
1 15 -20 0
1 6 18 0
1 -6 -7 0
1 6 21 0
1 -6 12 0
1 -16 -14 0
1 16 -12 0
1 16 -13 0
1 22 -9 0
1 -23 -24 0
1 -25 26 0
1 25 -9 0
1 -25 -27 0
1 28 -15 0
1 28 -9 0
1 28 27 0
1 -24 12 0
1 19 -28 0
1 19 -25 0
1 19 -22 0
1 27 23 0
1 -27 20 0
1 -26 22 0
1 26 12 0
1 -29 30 0
1 -29 -8 0
1 29 31 0
1 -29 -13 0
1 -17 -32 0
1 -32 30 0
1 32 33 0
1 -32 34 0
1 32 -17 0
1 32 35 0
1 32 -36 0
1 37 14 0
1 -31 17 0
1 -30 38 0
1 -30 29 0
1 34 -32 0
1 -21 -16 0
1 21 -22 0
1 -21 -35 0
1 -14 -16 0
1 14 23 0
1 14 -37 0
1 -14 2 0
1 14 21 0
1 -14 31 0
1 -14 -3 0
1 39 -40 0
1 -40 41 0
1 -40 36 0
1 42 40 0
1 -42 43 0
1 -42 -44 0
1 36 42 0
1 -36 43 0
1 -33 -21 0
1 33 -17 0
1 -33 35 0
1 -35 40 0
1 -35 14 0
1 35 -32 0
1 -44 -16 0
1 44 -42 0
1 44 41 0
1 44 6 0
1 -44 -45 0
1 -44 -27 0
1 44 36 0
1 -44 46 0
1 -44 20 0
1 20 16 0
1 20 26 0
1 20 -41 0
1 -20 -44 0
1 -20 -45 0
1 -20 46 0
1 -43 -27 0
1 43 36 0
1 43 46 0
1 -47 26 0
1 47 42 0
1 -47 27 0
1 45 44 0
1 -48 40 0
1 -48 -44 0
1 48 45 0
1 41 -40 0
1 -41 -47 0
1 -46 40 0
1 46 -43 0
1 46 -20 0
